; benchmark generated from python API
(set-info :status unknown)
(declare-fun S_5 () Real)
(declare-fun S_3 () Real)
(declare-fun C () Real)
(declare-fun S_4 () Real)
(declare-fun S_2 () Real)
(declare-fun S_0 () Real)
(declare-fun A_0 () Real)
(declare-fun L_0 () Real)
(declare-fun L0 () Real)
(declare-fun B () Real)
(declare-fun A_5 () Real)
(declare-fun A_4 () Real)
(declare-fun S_1 () Real)
(declare-fun L_1 () Real)
(declare-fun A_2 () Real)
(declare-fun A_1 () Real)
(declare-fun L_3 () Real)
(declare-fun L_2 () Real)
(declare-fun A_3 () Real)
(assert
 (let (($x42 (>= L0 0.0)))
 (let (($x938 (>= C 5.0)))
 (let (($x902 (>= B 5.0)))
 (let ((?x588 (* (- 1.0) A_5)))
 (let ((?x314 (* (- 1.0) S_1)))
 (let ((?x642 (* (- 1.0) B)))
 (let ((?x8289 (* (- 4.0) C)))
 (let (($x17095 (<= (+ (* (- 5.0) C) ?x642 A_4 ?x588 S_5 (* (- 1.0) S_0)) 0.0)))
 (let (($x17112 (<= (+ (* (- 3.0) C) ?x642 (* (- 1.0) S_2) A_4 ?x588 S_5) 0.0)))
 (let ((?x650 (* 2.0 C)))
 (let ((?x398 (* (- 1.0) L_1)))
 (let ((?x592 (* (- 1.0) A_4)))
 (let (($x17119 (<= (+ (* (- 2.0) C) ?x642 A_4 ?x588 (* (- 1.0) S_3) S_5) 0.0)))
 (let (($x17100 (<= (+ (* (- 1.0) C) ?x642 A_4 ?x588 (* (- 1.0) S_4) S_5) 0.0)))
 (let (($x16947 (<= (+ ?x642 L_0 (* (- 1.0) A_1) A_4 ?x588 (* (- 3.0) C) S_5) 0.0)))
 (let (($x16357 (<= (+ ?x650 (* (- 1.0) S_3) S_0) 0.0)))
 (let (($x558 (<= (+ A_2 (* (- 1.0) A_1) (* (- 1.0) C)) 0.0)))
 (let (($x15403 (not $x558)))
 (let ((?x1040 (+ A_2 ?x398)))
 (let (($x1785 (>= S_3 ?x1040)))
 (let (($x24542 (or $x558 (<= (+ C A_1 (* (- 1.0) L_0) (* (- 1.0) S_3)) 0.0) $x16357)))
 (let (($x15992 (<= 0.0 (+ C (* (- 1.0) A_1) L_0 S_0))))
 (let (($x15993 (not $x15992)))
 (let (($x1987 (>= S_5 (+ A_4 (* (- 1.0) L_3)))))
 (let (($x16472 (<= (+ (* (- 1.0) L_0) A_1 (* 3.0 C) (* (- 1.0) S_5)) 0.0)))
 (let (($x19738 (or $x558 $x15993 (<= (+ (* (- 1.0) L_0) A_1 ?x650 (* (- 1.0) S_4)) 0.0))))
 (let (($x69 (= L_2 L_1)))
 (let (($x16393 (<= (+ (* 3.0 C) (* (- 1.0) S_4) S_0) 0.0)))
 (let ((?x15277 (+ A_2 ?x398 C)))
 (let (($x15525 (>= S_4 ?x15277)))
 (let ((?x727 (* (- 2.0) C)))
 (let ((?x577 (* (- 1.0) L_3)))
 (let ((?x16301 (+ ?x642 ?x577 A_3 ?x727)))
 (let ((?x702 (* (- 1.0) L_0)))
 (let ((?x1022 (+ A_1 ?x702)))
 (let (($x16495 (<= ?x1022 ?x16301)))
 (let ((?x391 (* (- 1.0) C)))
 (let ((?x16287 (+ ?x642 ?x577 A_3 ?x391)))
 (let (($x16321 (<= (+ A_2 ?x702) ?x16287)))
 (let (($x1926 (= L_3 L_1)))
 (let (($x1690 (not (= L_1 L_2))))
 (let (($x969 (not (<= L_1 L_0))))
 (let (($x16650 (or $x969 $x1690 $x1926 (<= S_0 (+ ?x642 ?x577 A_3 (* (- 3.0) C))) $x16321 $x16495)))
 (let (($x7045 (= L_3 L_0)))
 (let (($x3147 (not (= L_0 L_2))))
 (let (($x24737 (or $x3147 $x7045 (<= (+ A_2 ?x702 L_3 (* (- 1.0) A_3) C) 0.0))))
 (let (($x19595 (or (not $x16495) (= (+ ?x642 L_0 (* (- 1.0) A_1) A_3 ?x577 ?x727) 0.0))))
 (let ((?x15538 (+ A_2 ?x398 ?x650)))
 (let (($x15539 (>= S_5 ?x15538)))
 (let (($x19309 (or $x1987 $x15539 $x15992 (<= (+ (* 4.0 C) (* (- 1.0) S_5) S_0) 0.0))))
 (let (($x24786 (or $x1987 $x15539 (<= (+ (* 3.0 C) S_1 (* (- 1.0) S_5)) 0.0))))
 (let (($x25298 (or $x3147 $x7045 $x16321 (<= (+ A_1 ?x702 L_3 (* (- 1.0) A_3) ?x650) 0.0))))
 (let (($x25189 (or (<= (+ A_1 ?x702 (* (- 1.0) S_2)) 0.0) (<= (+ C (* (- 1.0) S_2) S_0) 0.0))))
 (let (($x59 (= L_1 L_0)))
 (let (($x1490 (not (= L_2 L_3))))
 (let (($x24477 (or $x59 $x1490 (<= (+ A_3 (* (- 1.0) L_2) (* (- 1.0) A_1) L_1 ?x727) 0.0))))
 (let ((?x1440 (* 3.0 C)))
 (let ((?x14824 (+ A_1 ?x398 ?x642 ?x1440)))
 (let (($x15491 (>= S_5 ?x14824)))
 (let ((?x534 (+ A_1 ?x398 ?x642 C)))
 (let ((?x567 (* (- 1.0) L_2)))
 (let ((?x568 (+ A_2 ?x567)))
 (let (($x15166 (<= ?x568 ?x534)))
 (let (($x975 (not (<= L_3 L_2))))
 (let (($x24897 (or $x975 $x15166 (<= (+ A_4 ?x567 (* (- 1.0) A_1) L_1 (* (- 3.0) C)) 0.0) $x15491)))
 (let (($x79 (= L_3 L_2)))
 (let (($x19740 (or (= (+ ?x391 A_2 ?x567 ?x642 (* (- 1.0) A_1) L_0) 0.0) (not (<= ?x1022 (+ ?x642 ?x567 A_2 ?x391))))))
 (let ((?x15336 (+ ?x642 ?x567 A_2 ?x391)))
 (let (($x15366 (<= ?x1022 ?x15336)))
 (let (($x15348 (or $x69 $x969 (<= (+ A_1 ?x702 L_2 (* (- 1.0) A_2) C) 0.0))))
 (let (($x14879 (or $x69 $x79 (= (+ ?x391 (* (- 1.0) A_2) L_2 A_3 ?x577) 0.0))))
 (let (($x15279 (not (<= A_2 (+ A_1 ?x642 C)))))
 (let (($x143 (>= S_5 S_4)))
 (let (($x41 (>= L_0 L0)))
 (let (($x131 (>= S_1 S_0)))
 (let (($x134 (>= S_2 S_1)))
 (let (($x137 (>= S_3 S_2)))
 (let (($x140 (>= S_4 S_3)))
 (let (($x145 (>= A_1 A_0)))
 (let (($x146 (>= A_2 A_1)))
 (let (($x148 (>= A_4 A_3)))
 (let (($x149 (>= A_5 A_4)))
 (and (<= ?x568 S_4) (not (<= (+ A_3 ?x577) S_4)) $x149 $x148 $x146 $x145 $x140 $x137 $x134 $x131 $x41 $x143 (or $x79 (<= S_3 (+ A_3 ?x577 ?x642))) (>= S_2 (+ A_1 ?x398 ?x642)) (or $x59 $x969) (>= S_1 (+ ?x642 ?x398 A_1 ?x391)) (or $x59 (<= S_1 (+ A_1 ?x398 ?x642))) (or $x59 (<= S_0 (+ ?x642 ?x398 A_1 ?x391))) (or $x59 $x69 (= L_2 (+ A_2 (* (- 1.0) A_1) L_1 ?x391))) (or $x79 $x975) (or $x1490 (>= S_4 (+ A_3 ?x567 ?x642))) (>= S_4 (+ A_3 ?x577 ?x642)) (>= S_0 (+ ?x642 ?x398 A_1 ?x727)) (<= (+ ?x642 ?x398 A_1 ?x391) (+ A_0 ?x702)) (or $x79 (<= S_5 (+ A_3 ?x577 ?x642 ?x650))) (or (>= S_3 ?x534) $x15166) (or $x1785 $x15279) (or $x1926 (= (+ A_3 ?x577 ?x642) ?x15277) $x15279) (or $x79 (<= S_4 (+ A_3 ?x577 ?x642 C))) (or $x1987 (>= S_5 (+ A_3 ?x577 ?x642 C))) (or $x69 (<= (+ (* (- 1.0) A_2) L_2 B S_2) 0.0)) $x14879 (or $x69 (<= S_1 ?x15336)) $x15348 (<= (+ A_2 ?x567 ?x642 (* (- 1.0) S_3)) 0.0) (or $x69 (<= S_0 (+ ?x642 ?x567 A_2 ?x727)) $x15366) (>= S_2 ?x15336) (or $x15403 $x69) (<= (+ ?x642 ?x567 A_2 ?x727) (+ A_0 ?x702)) (or (= L_2 L_0) (not (<= 0.0 (+ ?x567 L_0)))) $x19740 (>= S_1 (+ ?x642 ?x567 A_2 ?x727)) (>= S_0 (+ ?x642 ?x567 A_2 (* (- 3.0) C))) (<= S_5 (+ A_4 ?x577 C)) (or $x59 $x558 $x1690) (or $x59 (<= S_3 (+ A_1 ?x398 ?x642 ?x650))) (or $x59 (<= S_2 ?x534)) (or $x59 $x79 $x15166 (= (+ A_3 ?x577) (+ A_1 ?x398 ?x650))) (or $x79 (<= S_5 (+ A_5 ?x592 A_3 ?x577 C))) (or $x15166 (>= S_4 (+ A_1 ?x398 ?x642 ?x650))) (or $x15279 $x15525) (or $x1987 $x15279 $x15539) $x24897 (or $x1490 (>= S_5 (+ A_4 ?x567)) $x15166 $x15491) (or $x59 (<= S_5 (+ A_1 ?x398 ?x642 (* 4.0 C)))) (or $x59 (<= S_4 ?x14824)) $x24477 (<= S_5 (+ A_5 ?x577)) (or $x59 (<= S_5 (+ A_5 ?x592 A_1 ?x398 ?x1440))) (or $x69 (<= S_3 (+ A_2 ?x567 ?x642 C))) (>= S_4 (+ A_2 ?x567 ?x642 C)) (or $x1987 (>= S_5 (+ A_2 ?x567 ?x642 ?x650))) (or $x69 (<= S_4 (+ A_2 ?x567 ?x642 ?x650))) (or $x69 (<= S_5 (+ A_2 ?x567 ?x642 ?x1440))) $x25189 (<= (+ (* (- 1.0) A_1) L_0 S_1) 0.0) (<= (+ ?x391 L_0 (* (- 1.0) A_0) S_1) 0.0) (or $x69 $x1490 (<= A_3 (+ A_2 C))) (<= S_5 (+ A_2 ?x398 ?x1440)) (<= S_4 ?x15538) (or (not (= L_1 L_3)) (<= (+ A_3 (* (- 1.0) A_2) ?x391) B)) (<= S_3 ?x15277) (or $x1987 (<= (+ C S_3 (* (- 1.0) S_5)) 0.0)) (<= (+ ?x727 S_1 (* (- 1.0) S_0)) 0.0) (<= (+ (* (- 3.0) C) L_0 (* (- 1.0) A_0) S_3) 0.0) (or $x1785 (<= (+ C S_1 (* (- 1.0) S_3)) 0.0)) (or $x79 (<= S_2 ?x16287)) (>= S_3 ?x16287) (<= S_2 ?x1040) (<= (+ ?x727 L_0 (* (- 1.0) A_0) S_2) 0.0) (or (not $x16321) (= (+ A_3 ?x577 ?x642) (+ A_2 ?x702 C))) (>= S_2 ?x16301) (or $x969 $x1690 $x1926 (<= S_1 ?x16301) $x16321) (<= (+ ?x642 ?x577 A_3 (* (- 3.0) C)) (+ A_0 ?x702)) (or $x1987 (<= (+ ?x650 S_2 (* (- 1.0) S_5)) 0.0)) $x25298 $x24786 (<= (+ (* (- 5.0) C) L_0 (* (- 1.0) A_0) S_5) 0.0) $x19309 (>= S_0 (+ ?x642 ?x577 A_3 ?x8289)) (>= S_1 (+ ?x642 ?x577 A_3 (* (- 3.0) C))) $x19595 $x24737 $x16650 (<= (+ ?x8289 (* (- 1.0) S_2) S_5) 0.0) (<= (+ (* (- 5.0) C) ?x314 S_5) 0.0) (<= (+ (* (- 6.0) C) S_5 (* (- 1.0) S_0)) 0.0) (<= (+ (* (- 3.0) C) S_2 (* (- 1.0) S_0)) 0.0) (<= (+ ?x391 (* (- 1.0) A_1) L_0 S_2) 0.0) (or $x15525 (<= (+ ?x650 S_1 (* (- 1.0) S_4)) 0.0)) (or $x15403 $x15525 $x16393) (or $x15525 $x15992 $x16393) (<= (+ L_0 (* (- 1.0) A_1) ?x727 S_3) 0.0) (<= (+ ?x8289 S_3 (* (- 1.0) S_0)) 0.0) (or $x69 (<= S_5 (+ A_5 ?x592 A_2 ?x567 ?x650))) $x19738 (or $x558 $x1987 $x15993 $x16472) (or $x1987 $x15403 $x15993 (>= S_5 (+ A_2 ?x702 ?x650))) $x24542 (or $x1785 $x15403 $x16357) (<= (+ ?x8289 L_0 (* (- 1.0) A_0) S_4) 0.0) (<= (+ L_0 (* (- 1.0) A_1) (* (- 3.0) C) S_4) 0.0) (<= (+ (* (- 3.0) C) ?x314 S_3) 0.0) (<= (+ ?x727 S_2 ?x314) 0.0) (<= (+ (* (- 5.0) C) S_4 (* (- 1.0) S_0)) 0.0) (<= (+ ?x8289 ?x314 S_4) 0.0) (<= (+ (* (- 3.0) C) (* (- 1.0) S_2) S_4) 0.0) (<= (+ L_0 (* (- 1.0) A_1) ?x8289 S_5) 0.0) $x16947 $x17100 $x17119 (<= S_5 (+ A_5 ?x592 A_2 ?x398 ?x650 B)) $x17112 $x17095 (<= (+ ?x8289 ?x642 L_0 (* (- 1.0) A_0) A_4 ?x588 S_5) 0.0) (<= (+ ?x8289 ?x642 ?x314 A_4 ?x588 S_5) 0.0) $x902 $x938 $x42 (<= (+ L_0 (* (- 1.0) A_0) S_0) 0.0) (<= (+ ?x727 (* (- 1.0) S_2) S_3) 0.0) (<= (+ C S_2 (* (- 1.0) S_4)) 0.0) (<= (+ ?x727 (* (- 1.0) S_3) S_4) 0.0) (<= (+ ?x727 (* (- 1.0) S_4) S_5) 0.0) (<= (+ (* (- 3.0) C) (* (- 1.0) S_3) S_5) 0.0)))))))))))))))))))))))))))))))))))))))))))))))))))))))))))))))))))))))))))))))))))))
(check-sat)
